data/solutions/recovery/degenerate/intermediate/binding/degenerate_intermediate_instance38/27.sol
Elapsed time: 0.29
Upper bound: 299617.0
Planning weighted value: 14123808510.0
C[0]=299617.0
C[1]=299507.0
C[2]=299183.0
C[3]=298993.0
C[4]=297569.0
C[5]=295909.0
C[6]=294869.0
C[7]=288728.0
C[8]=288208.0
C[9]=285956.0
C[10]=281219.0
C[11]=278815.0
C[12]=275845.0
C[13]=0.0
C[14]=0.0
C[15]=0.0
y[0]=7
y[1]=3
y[2]=7
y[3]=9
y[4]=2
y[5]=9
y[6]=12
y[7]=7
y[8]=9
y[9]=11
y[10]=1
y[11]=10
y[12]=11
y[13]=2
y[14]=7
y[15]=3
y[16]=2
y[17]=5
y[18]=10
y[19]=0
y[20]=8
y[21]=11
y[22]=1
y[23]=4
y[24]=11
y[25]=3
y[26]=4
y[27]=6
y[28]=2
y[29]=7
y[30]=10
y[31]=0
y[32]=3
y[33]=5
y[34]=5
y[35]=9
y[36]=8
y[37]=4
y[38]=11
y[39]=3
y[40]=2
y[41]=0
y[42]=1
y[43]=1
y[44]=10
y[45]=4
y[46]=8
y[47]=8
y[48]=8
y[49]=4
y[50]=5
y[51]=12
y[52]=0
y[53]=5
y[54]=12
y[55]=6
y[56]=4
y[57]=12
y[58]=6
y[59]=1
y[60]=8
y[61]=0
y[62]=9
y[63]=6
y[64]=2
y[65]=5
